benchmarks/VRPTW/TSPTW/solution/n60w100.005.txt.solution
1 24 47 5 54 25 57 37 32 56 55 33 38 20 9 39 2 10 27 11 42 6 45 35 51 19 21 17 59 8 50 49 58 7 3 36 15 14 13 28 30 48 22 29 4 26 46 52 41 34 60 31 18 44 16 53 23 43 61 12 40 
451
